NAME : single
TYPE : ATSP
DIMENSION : 7
EDGE_WEIGHT_TYPE : EXPLICIT
EDGE_WEIGHT_FORMAT : FULL_MATRIX
EDGE_WEIGHT_SECTION
0 2873 1415 466 3679 4018 2641 
0 0 1600 2775 670 1129 703 
0 1600 0 1194 2317 2442 1061 
0 2775 1194 0 3121 3602 2137 
0 670 2317 3121 0 293 1403 
0 1129 2442 3602 293 0 1611 
0 703 1061 2137 1403 1611 0 
EOF